1 0 0 1 0 0 1 0 1 0 1 
0 48 44 22 37 44 23 27 29 28 35 
48 0 31 6 40 20 25 41 18 29 17 
44 31 0 11 22 29 48 33 15 23 26 
22 6 11 0 24 7 41 36 40 36 25 
37 40 22 24 0 22 10 33 16 11 8 
44 20 29 7 22 0 30 36 21 20 48 
23 25 48 41 10 30 0 37 41 27 43 
27 41 33 36 33 36 37 0 10 37 15 
29 18 15 40 16 21 41 10 0 20 7 
28 29 23 36 11 20 27 37 20 0 23 
35 17 26 25 8 48 43 15 7 23 0 
4 6
1P 7P 5B 10B 6B 2B 4P 3B 9P 11P 8B = 165